--- Job without_locational_instrument_new_formulation.gms Start 12/30/21 16:34:50 30.3.0 rc5da09e WEX-WEI x86 64bit/MS Windows
--- GAMS Parameters defined
    Input C:\Users\a.eicke\Documents\Locational-investment-signals\Three node models\without_locational_instrument_new_formulation.gms
    PageSize 0
    ScrDir C:\Users\a.eicke\Documents\Locational-investment-signals\Three node models\225b\
    SysDir C:\GAMS\win64\30.3\
    LogOption 3
    ErrMsg 1
    ErrorLog 99
    IDE 1
    LstTitleLeftAligned 1
GAMS 30.3.0   Copyright (C) 1987-2020 GAMS Development. All rights reserved
Licensee: Small MUD - 5 User License                     S190305:0326AO-WIN
          Hertie School of Governance GmbH, Governance of DigitalizaDC14808
--- Starting compilation
--- without_locational_instrument_new_formulation.gms(84) 3 Mb
--- GDXin=C:\Users\a.eicke\Documents\Locational-investment-signals\Three node models\in.gdx
--- without_locational_instrument_new_formulation.gms(314) 3 Mb
--- Starting execution: elapsed 0:00:00.000
--- without_locational_instrument_new_formulation.gms(284) 4 Mb
--- Generating MIQCP model LOCI
--- without_locational_instrument_new_formulation.gms(287) 7 Mb
---   2,339 rows  1,774 columns  6,503 non-zeroes
---   322 nl-code  56 nl-non-zeroes
---   472 discrete-columns
--- without_locational_instrument_new_formulation.gms(287) 5 Mb
--- Executing CPLEX: elapsed 0:00:00.045

IBM ILOG CPLEX   30.3.0 rc5da09e Released Mar 06, 2020 WEI x86 64bit/MS Window
--- GAMS/Cplex licensed for continuous and discrete problems.
Cplex 12.10.0.0

The search will stop after 25000000 nodes.
Reading data...
Starting Cplex...
Space for names approximately 0.12 Mb
Use option 'names no' to turn use of names off
Version identifier: 12.10.0.0 | 2019-11-26 | 843d4de2ae
CPXPARAM_Advance                                 0
CPXPARAM_Threads                                 1
CPXPARAM_Parallel                                1
CPXPARAM_MIP_Display                             4
CPXPARAM_Simplex_Limits_Iterations               2000000000
CPXPARAM_MIP_Limits_Nodes                        25000000
CPXPARAM_TimeLimit                               40000
CPXPARAM_Tune_TimeLimit                          8000
CPXPARAM_MIP_Tolerances_AbsMIPGap                0
CPXPARAM_MIP_Tolerances_MIPGap                   0.0050000000000000001
CPXPARAM_WorkDir                                 "C:\Users\a.eicke\Documents\Locational-investment-signals\Three node models\225b\"
Tried aggregator 2 times.
MIQP Presolve eliminated 782 rows and 230 columns.
MIQP Presolve modified 652 coefficients.
Aggregator did 49 substitutions.
Reduced MIQP has 1508 rows, 1486 columns, and 4456 nonzeros.
Reduced MIQP has 408 binaries, 0 generals, 0 SOSs, and 0 indicators.
Reduced MIQP objective Q matrix has 104 nonzeros.
Presolve time = 0.00 sec. (4.18 ticks)
Probing fixed 0 vars, tightened 136 bounds.
Probing time = 0.00 sec. (1.16 ticks)
Tried aggregator 1 time.
MIQP Presolve modified 142 coefficients.
Reduced MIQP has 1508 rows, 1486 columns, and 4456 nonzeros.
Reduced MIQP has 408 binaries, 0 generals, 0 SOSs, and 0 indicators.
Reduced MIQP objective Q matrix has 104 nonzeros.
Presolve time = 0.00 sec. (1.95 ticks)
Classifier predicts products in MIQP should not be linearized.
Represolve...

Tried aggregator 2 times.
MIQP Presolve eliminated 782 rows and 230 columns.
MIQP Presolve modified 652 coefficients.
Aggregator did 49 substitutions.
Reduced MIQP has 1508 rows, 1486 columns, and 4456 nonzeros.
Reduced MIQP has 408 binaries, 0 generals, 0 SOSs, and 0 indicators.
Reduced MIQP objective Q matrix has 104 nonzeros.
Presolve time = 0.00 sec. (4.03 ticks)
Probing fixed 0 vars, tightened 136 bounds.
Probing time = 0.00 sec. (1.16 ticks)
Tried aggregator 1 time.
MIQP Presolve modified 142 coefficients.
Reduced MIQP has 1508 rows, 1486 columns, and 4456 nonzeros.
Reduced MIQP has 408 binaries, 0 generals, 0 SOSs, and 0 indicators.
Reduced MIQP objective Q matrix has 104 nonzeros.
Presolve time = 0.02 sec. (1.82 ticks)
Probing fixed 0 vars, tightened 12 bounds.
Probing time = 0.02 sec. (0.97 ticks)
Clique table members: 352.
MIP emphasis: balance optimality and feasibility.
MIP search method: dynamic search.
Parallel mode: none, using 1 thread.
Number of nonzeros in lower triangle of Q = 24
Using Approximate Minimum Degree ordering
Total time for automatic ordering = 0.00 sec. (0.00 ticks)
Summary statistics for factor of Q:
  Rows in Factor            = 56
  Integer space required    = 56
  Total non-zeros in factor = 80
  Total FP ops to factor    = 128
Tried aggregator 1 time.
Aggregator did 408 substitutions.
Number of nonzeros in lower triangle of Q = 24
Using Approximate Minimum Degree ordering
Total time for automatic ordering = 0.00 sec. (0.00 ticks)
Summary statistics for factor of Q:
  Rows in Factor            = 56
  Integer space required    = 56
  Total non-zeros in factor = 80
  Total FP ops to factor    = 128
Reduced QP has 1100 rows, 1078 columns, and 3640 nonzeros.
Reduced QP objective Q matrix has 104 nonzeros.
Presolve time = 0.00 sec. (1.16 ticks)
Tried aggregator 1 time.
QP Presolve eliminated 24 rows and 24 columns.
QP Presolve added 0 rows and 56 columns.
Reduced QP has 1132 rows, 1110 columns, and 3728 nonzeros.
Reduced QP objective Q matrix has 32 nonzeros.
Presolve time = 0.00 sec. (0.58 ticks)
Parallel mode: none, using 1 thread for barrier

***NOTE: Found 9 dense columns.

Number of nonzeros in lower triangle of A*A' = 4433
Using Approximate Minimum Degree ordering
Total time for automatic ordering = 0.00 sec. (0.52 ticks)
Summary statistics for Cholesky factor:
  Rows in Factor            = 1141
  Integer space required    = 2721
  Total non-zeros in factor = 11884
  Total FP ops to factor    = 167074
 Itn      Primal Obj        Dual Obj  Prim Inf Upper Inf  Dual Inf          
   0   9.5141147e+08   3.9428069e+11  2.81e+08  2.11e+08  8.75e+05
   1   5.8736475e+08   2.5391534e+11  1.60e+08  1.20e+08  4.99e+05
   2   2.7775146e+08   1.7163874e+11  7.60e+07  5.70e+07  2.37e+05
   3   2.0282475e+07   1.4121570e+10  4.81e+06  3.60e+06  1.50e+04
   4   7.3373453e+05   1.5169181e+09  3.00e+05  2.25e+05  9.34e+02
   5  -7.3384487e+05   2.4797276e+08  3.37e+04  2.53e+04  1.05e+02
   6  -7.1149621e+05   1.2435133e+08  1.05e+04  7.89e+03  3.28e+01
   7  -6.1091113e+05   8.6655181e+07  6.12e+03  4.59e+03  1.91e+01
   8  -6.0030495e+05   7.9331288e+07  4.83e+03  3.62e+03  1.50e+01
   9  -2.8339633e+05   9.2992009e+06  5.68e+01  4.25e+01  1.77e-01
  10   7.2709610e+04   2.7683123e+06  1.58e+00  1.18e+00  4.92e-03
  11   1.2323829e+05   7.8944333e+05  3.03e-01  2.27e-01  9.42e-04
  12   1.8073070e+05   3.7612028e+05  4.01e-02  3.01e-02  1.25e-04
  13   2.0119401e+05   2.5815410e+05  9.23e-03  6.92e-03  2.87e-05
  14   2.0454891e+05   2.3612170e+05  4.04e-03  3.03e-03  1.26e-05
  15   2.0641887e+05   2.1679920e+05  2.69e-07  1.34e-08  5.37e-12
  16   2.0786681e+05   2.0888666e+05  1.90e-07  1.08e-08  5.16e-12
  17   2.0799864e+05   2.0805450e+05  2.71e-07  1.12e-08  5.43e-12
  18   2.0800643e+05   2.0800728e+05  2.65e-07  1.10e-08  5.01e-12
  19   2.0800657e+05   2.0800658e+05  3.20e-07  1.25e-08  5.21e-12
  20   2.0800657e+05   2.0800657e+05  9.49e-07  1.34e-08  5.07e-12
  21   2.0800657e+05   2.0800657e+05  1.33e-06  1.24e-08  5.20e-12
Barrier time = 0.05 sec. (18.54 ticks)

Total time on 1 threads = 0.05 sec. (19.71 ticks)
Barrier time = 0.05 sec. (18.56 ticks)

QP crossover.
  Primal and Dual:  Fixing 596 variables.
Markowitz threshold set to 0.1
  Primal:  Pushed 230, exchanged 385.
  Dual  :  Pushed 25, exchanged 359.
Removing shift (17).
Total crossover time = 0.08 sec. (54.53 ticks)

Total time on 1 threads = 0.13 sec. (74.38 ticks)
Root relaxation solution time = 0.13 sec. (74.39 ticks)

        Nodes                                         Cuts/
   Node  Left     Objective  IInf  Best Integer    Best Bound    ItCnt     Gap

      0     0   208006.5693   203                 208006.5693       21         
      0     0   208006.5693   203                   Cuts: 262      749         
      0     0   208006.5693   203                   Cuts: 262     1060         
      0     0   208006.5693   203                   Cuts: 147     1177         
      0     0   208006.5693   203                   Cuts: 150     1239         
*     0+    0                            0.0000   208006.5693              --- 
Found incumbent of value 0.000000 after 1.34 sec. (641.58 ticks)
      0     2   208006.5693   117        0.0000   208006.5693     1239     --- 
Elapsed time = 1.36 sec. (642.27 ticks, tree = 0.01 MB, solutions = 1)
     60    50   207298.8409    58        0.0000   208006.5693     2991     --- 
                                                  Impl Bds: 4                  
     94    82        cutoff              0.0000   208006.5693     4064     --- 
    157   139   197724.0228    77        0.0000   208006.5693     6717     --- 
                                                  Flowcuts: 2                  
    238   216   204602.2132    49        0.0000   208006.5693     8121     --- 
                                                  Impl Bds: 1                  
    305   258   198817.1647    93        0.0000   208006.5693    11286     --- 
                                                      Cuts: 6                  
    368   309   204495.1967    77        0.0000   208006.5693    15846     --- 
    420   351   207298.8409    40        0.0000   208006.5693    17721     --- 
*   478+  386                            0.0000   208006.5693              --- 
Found incumbent of value 0.000024 after 7.33 sec. (3752.82 ticks)
    478   388   207298.8409    49        0.0000   208006.5693    18132     --- 
*   479+  387                            0.0002   208006.5693              --- 
Found incumbent of value 0.000170 after 7.47 sec. (3816.15 ticks)
    560   458   207147.4219    37        0.0002   208006.5693    21690     --- 
                                                      Cuts: 4                  

Performing restart 1

Repeating presolve.
Tried aggregator 1 time.
MIQP Presolve modified 12 coefficients.
Reduced MIQP has 1508 rows, 1486 columns, and 4456 nonzeros.
Reduced MIQP has 408 binaries, 0 generals, 0 SOSs, and 0 indicators.
Reduced MIQP objective Q matrix has 104 nonzeros.
Presolve time = 0.00 sec. (1.78 ticks)
Tried aggregator 1 time.
Reduced MIQP has 1508 rows, 1486 columns, and 4456 nonzeros.
Reduced MIQP has 408 binaries, 0 generals, 0 SOSs, and 0 indicators.
Reduced MIQP objective Q matrix has 104 nonzeros.
Presolve time = 0.00 sec. (1.77 ticks)
Represolve time = 0.01 sec. (6.42 ticks)
Number of nonzeros in lower triangle of Q = 24
Using Approximate Minimum Degree ordering
Total time for automatic ordering = 0.00 sec. (0.00 ticks)
Summary statistics for factor of Q:
  Rows in Factor            = 56
  Integer space required    = 56
  Total non-zeros in factor = 80
  Total FP ops to factor    = 128
Tried aggregator 1 time.
Aggregator did 264 substitutions.
Number of nonzeros in lower triangle of Q = 24
Using Approximate Minimum Degree ordering
Total time for automatic ordering = 0.00 sec. (0.00 ticks)
Summary statistics for factor of Q:
  Rows in Factor            = 56
  Integer space required    = 56
  Total non-zeros in factor = 80
  Total FP ops to factor    = 128
Reduced QP has 1721 rows, 1222 columns, and 5377 nonzeros.
Reduced QP objective Q matrix has 104 nonzeros.
Presolve time = 0.00 sec. (1.42 ticks)
Tried aggregator 1 time.
QP Presolve eliminated 24 rows and 24 columns.
QP Presolve added 0 rows and 56 columns.
Reduced QP has 1753 rows, 1254 columns, and 5465 nonzeros.
Reduced QP objective Q matrix has 32 nonzeros.
Presolve time = 0.00 sec. (0.79 ticks)
Parallel mode: none, using 1 thread for barrier

***NOTE: Found 6 dense columns.

Number of nonzeros in lower triangle of A*A' = 12520
Using Approximate Minimum Degree ordering
Total time for automatic ordering = 0.00 sec. (1.15 ticks)
Summary statistics for Cholesky factor:
  Rows in Factor            = 1759
  Integer space required    = 6137
  Total non-zeros in factor = 37313
  Total FP ops to factor    = 1100489
 Itn      Primal Obj        Dual Obj  Prim Inf Upper Inf  Dual Inf          
   0  -5.2988905e+09   3.6299358e+12  5.18e+08  2.92e+08  1.33e+07
   1  -4.3834419e+09   2.7064288e+12  3.47e+08  1.96e+08  8.94e+06
   2  -3.3443789e+09   1.5844994e+12  1.53e+08  8.63e+07  3.94e+06
   3  -2.2852470e+08   3.3204573e+11  1.99e+07  1.12e+07  5.13e+05
   4  -4.1467445e+07   7.2682923e+10  3.21e+06  1.81e+06  8.27e+04
   5  -1.6511765e+07   1.3314825e+10  4.49e+05  2.54e+05  1.16e+04
   6  -5.9188016e+06   2.9315627e+09  7.25e+04  4.09e+04  1.87e+03
   7  -2.8929648e+06   9.9640408e+08  1.84e+04  1.04e+04  4.75e+02
   8  -1.8768873e+06   4.8487206e+08  7.48e+03  4.22e+03  1.93e+02
   9  -1.5279917e+06   3.6569770e+08  4.76e+03  2.69e+03  1.23e+02
  10  -1.0470239e+06   1.4508783e+08  1.45e+03  8.21e+02  3.75e+01
  11  -6.0444022e+05   4.8253464e+07  2.74e+02  1.55e+02  7.05e+00
  12  -2.0296289e+05   1.3147333e+07  2.51e+01  1.42e+01  6.47e-01
  13   5.0221861e+04   6.8482305e+06  1.59e-07  1.28e-08  6.73e-10
  14   1.1882988e+05   1.0089907e+06  4.43e-07  1.22e-08  4.87e-10
  15   1.7093517e+05   4.7578047e+05  1.89e-07  1.28e-08  8.51e-11
  16   1.9684704e+05   2.9925735e+05  1.86e-07  9.77e-09  3.67e-11
  17   2.0332570e+05   2.5516204e+05  4.75e-07  1.09e-08  2.51e-11
  18   2.0428173e+05   2.3431409e+05  3.43e-07  1.01e-08  1.87e-11
  19   2.0691861e+05   2.1676523e+05  4.79e-07  1.31e-08  1.95e-11
  20   2.0791394e+05   2.0880669e+05  1.10e-06  1.28e-08  1.49e-11
  21   2.0799653e+05   2.0809621e+05  5.32e-07  1.24e-08  1.67e-11
  22   2.0800642e+05   2.0800774e+05  6.27e-07  1.37e-08  1.64e-11
  23   2.0800657e+05   2.0800658e+05  5.45e-07  1.31e-08  1.71e-11
  24   2.0800657e+05   2.0800657e+05  1.68e-06  1.25e-08  1.43e-11
  25   2.0800657e+05   2.0800657e+05  2.22e-06  1.52e-08  1.45e-11
Barrier time = 0.13 sec. (46.20 ticks)

Total time on 1 threads = 0.13 sec. (47.63 ticks)
Barrier time = 0.13 sec. (46.23 ticks)

QP crossover.
  Primal and Dual:  Fixing 697 variables.
Markowitz threshold set to 0.1
  Primal:  Pushed 274, exchanged 471.
  Dual  :  Pushed 25, exchanged 448.
Removing shift (14).
Total crossover time = 0.09 sec. (57.45 ticks)

Total time on 1 threads = 0.22 sec. (105.28 ticks)
    589     0   208006.5693   220        0.0002     Cuts: 304    26104     --- 
    589     0   208006.5693   220        0.0002     Cuts: 238    26245     --- 
    589     0   208006.5693   220        0.0002     Cuts: 147    26301     --- 
    589     0   208006.5693   220        0.0002     Cuts: 103    26365     --- 
    589     0   208006.5693   220        0.0002      Cuts: 98    26401     --- 
    589     0   208006.5693   220        0.0002      Cuts: 59    26449     --- 
    589     0   208006.5693   220        0.0002     Cuts: 103    26483     --- 
    589     2   208006.5693   133        0.0002   208006.5693    26483     --- 
Elapsed time = 17.67 sec. (9967.99 ticks, tree = 0.01 MB, solutions = 6)
    612    23   207298.8409   103        0.0002   208006.5693    26992     --- 
    635    42   206485.6403    94        0.0002   208006.5693    28666     --- 
    669    71   190946.8334    77        0.0002   208006.5693    32220     --- 
    729   120   208006.5693    67        0.0002   208006.5693    36215     --- 
    830   204   204002.6649    25        0.0002   208006.5693    45390     --- 
    932   293   205022.1612    52        0.0002   208006.5693    54787     --- 
   1053   392   205911.7493    49        0.0002   208006.5693    63406     --- 
   1169   484   206488.3982    55        0.0002   208006.5693    72989     --- 
   1258   563   206486.2513    39        0.0002   208006.5693    84048     --- 
   1372   658   206866.3511    60        0.0002   208006.5693    91761     --- 
Elapsed time = 34.08 sec. (19932.89 ticks, tree = 0.57 MB, solutions = 6)
   1491   751        cutoff              0.0002   208006.5693    99955     --- 
   1609   855   206231.8591    50        0.0002   208006.5693   108632     --- 
   1734   955   201193.0918    56        0.0002   208006.5693   118020     --- 
   1858  1055    infeasible              0.0002   208006.5693   127728     --- 
   1962  1145   207878.3919    69        0.0002   208006.5693   133955     --- 
   2059  1231   208006.5693    89        0.0002   208006.5693   140436     --- 
   2189  1311   206942.4483    57        0.0002   208006.5693   155918     --- 
                                                   MIRcuts: 1                  
   2295  1369    infeasible              0.0002   208006.5693   168102     --- 
   2412  1452   206961.5141    44        0.0002   208006.5693   180692     --- 
   2531  1555   206134.5958    49        0.0002   208006.5693   192773     --- 
Elapsed time = 49.66 sec. (29562.65 ticks, tree = 1.32 MB, solutions = 6)
   2661  1646   207903.2307    51        0.0002   208006.5693   206589     --- 
   2813  1759   204374.3797    39        0.0002   208006.5693   215777     --- 
   2984  1878   202299.2227    43        0.0002   208006.5693   227037     --- 
   3100  1950   204388.9092    47        0.0002   208006.5693   239041     --- 
                                                      Cuts: 5                  
   3217  2041   205872.2209    38        0.0002   208006.5693   251591     --- 
   3355  2127    infeasible              0.0002   208006.5693   262661     --- 
   3475  2185    infeasible              0.0002   208006.5693   274821     --- 
   3632  2308    infeasible              0.0002   208006.5693   289114     --- 
   3792  2413   207111.8848    47        0.0002   208006.5693   301911     --- 
   3910  2499   206096.6343    49        0.0002   208006.5693   314026     --- 
Elapsed time = 66.63 sec. (39332.74 ticks, tree = 2.16 MB, solutions = 6)
   4058  2590   207111.8848    37        0.0002   208006.5693   323126     --- 
   4135  2645   207994.0268    39        0.0002   208006.5693   332557     --- 
   4228  2706   208006.5693    48        0.0002   208006.5693   344651     --- 
   4366  2794   207192.4966    39        0.0002   208006.5693   354601     --- 
   4519  2901   204814.7651    47        0.0002   208006.5693   369681     --- 
   4649  2995    infeasible              0.0002   208006.5693   380879     --- 
   4804  3106   207298.8409    64        0.0002   208006.5693   393640     --- 
   4971  3231   203716.8700    44        0.0002   208006.5693   407058     --- 
   5059  3301   207209.0424    57        0.0002   208006.5693   419646     --- 
   5198  3420   207126.5176    42        0.0002   208006.5693   430144     --- 
Elapsed time = 84.31 sec. (48926.89 ticks, tree = 2.88 MB, solutions = 6)
   5305  3493   207526.4115    40        0.0002   208006.5693   442102     --- 
   5402  3570   207130.0405    40        0.0002   208006.5693   452046     --- 
   5529  3669   205527.1917    52        0.0002   208006.5693   465256     --- 
   5638  3750   207125.3833    46        0.0002   208006.5693   477586     --- 
   5796  3874   207729.8568    32        0.0002   208006.5693   489572     --- 
   5923  3959        cutoff              0.0002   208006.5693   501607     --- 
   6069  4079   206597.1277    43        0.0002   208006.5693   511909     --- 
   6183  4157   207825.9048    35        0.0002   208006.5693   524280     --- 
   6278  4221   207810.3234    50        0.0002   208006.5693   535275     --- 
   6392  4304    infeasible              0.0002   208006.5693   548453     --- 
Elapsed time = 101.48 sec. (58691.37 ticks, tree = 3.73 MB, solutions = 6)
   6466  4349   207687.8750    51        0.0002   208006.5693   560078     --- 
   6558  4412   206134.1227    53        0.0002   208006.5693   572751     --- 
   6699  4530   190595.8113    29        0.0002   208006.5693   584332     --- 
   6798  4599   204912.6525    62        0.0002   208006.5693   596706     --- 
   6939  4698   206064.9133    59        0.0002   208006.5693   606931     --- 
   7039  4772   205523.6706    59        0.0002   208006.5693   618785     --- 
   7145  4846   207825.5642    27        0.0002   208006.5693   629976     --- 
   7215  4892    infeasible              0.0002   208006.5693   645876     --- 
   7317  4970   205328.5830    28        0.0002   208006.5693   658496     --- 
   7395  5032   207643.0765    22        0.0002   208006.5693   667760     --- 
Elapsed time = 119.20 sec. (68328.56 ticks, tree = 4.33 MB, solutions = 6)
   7562  5146   207795.8012    21        0.0002   208006.5693   678433     --- 
   7645  5201    infeasible              0.0002   208006.5693   693457     --- 
   7747  5279   207902.3748    38        0.0002   208006.5693   705509     --- 
   7867  5375   207706.9912    28        0.0002   208006.5693   716292     --- 
   7933  5421   207538.2116    32        0.0002   208006.5693   728024     --- 
   7999  5459   208005.7746    42        0.0002   208006.5693   740428     --- 
   8119  5537   208006.5693    35        0.0002   208006.5693   753584     --- 
   8187  5580   206299.0898    61        0.0002   208006.5693   768435     --- 
   8295  5664   207274.9178    26        0.0002   208006.5693   780045     --- 
   8360  5709   205623.7635    48        0.0002   208006.5693   791769     --- 
Elapsed time = 136.86 sec. (78011.12 ticks, tree = 4.88 MB, solutions = 6)
   8434  5765   206571.5052    37        0.0002   208006.5693   802017     --- 
   8552  5845   207710.1580    46        0.0002   208006.5693   812361     --- 
   8639  5904   205458.6354    36        0.0002   208006.5693   824789     --- 
   8716  5951    infeasible              0.0002   208006.5693   838578     --- 
   8788  6003   200690.6601    43        0.0002   208006.5693   846059     --- 
   8889  6075   207994.0268    68        0.0002   208006.5693   855708     --- 
   8993  6162   129574.8734    22        0.0002   208006.5693   864522     --- 
   9045  6195    infeasible              0.0002   208006.5693   873132     --- 
   9283  6391   199374.3421    67        0.0002   208006.5693   885213     --- 
   9411  6497    infeasible              0.0002   208006.5693   895653     --- 
Elapsed time = 152.72 sec. (87766.16 ticks, tree = 5.53 MB, solutions = 6)
   9528  6592   179034.6902    64        0.0002   208006.5693   909997     --- 
   9592  6638   206817.5642    60        0.0002   208006.5693   916429     --- 
   9696  6704        cutoff              0.0002   208006.5693   931153     --- 
   9833  6825   207879.3130    42        0.0002   208006.5693   942032     --- 
   9917  6888    infeasible              0.0002   208006.5693   955452     --- 
  10052  6990   206227.2181    61        0.0002   208006.5693   966274     --- 
  10134  7044   207700.5206    51        0.0002   208006.5693   979130     --- 
                                                      Cuts: 9                  
  10216  7090   177668.3363    48        0.0002   208006.5693   988957     --- 
  10318  7152   207896.5959    73        0.0002   208006.5693   999700     --- 
  10750  7440   208006.5693    62        0.0002   208006.5693  1044417     --- 
Elapsed time = 172.98 sec. (100466.79 ticks, tree = 6.32 MB, solutions = 6)
  11083  7686   202930.9498    45        0.0002   208006.5693  1089168     --- 
  11502  7954   207290.1815    61        0.0002   208006.5693  1133173     --- 
  11899  8237   207048.2663    31        0.0002   208006.5693  1178883     --- 
                                                      Cuts: 7                  
  12089  8366   204696.2926    33        0.0002   208006.5693  1199839     --- 
  12334  8517    infeasible              0.0002   208006.5693  1246519     --- 
  12728  8753    infeasible              0.0002   208006.5693  1295834     --- 
  13186  9032   201773.9201    45        0.0002   208006.5693  1346261     --- 
  13554  9235   205078.3758    56        0.0002   208006.5693  1394475     --- 
  13929  9427   206859.6769    45        0.0002   208006.5693  1445269     --- 
  14210  9588    infeasible              0.0002   208006.5693  1493699     --- 
Elapsed time = 251.55 sec. (145595.64 ticks, tree = 8.50 MB, solutions = 6)
  14435  9741   207000.9979    45        0.0002   208006.5693  1536983     --- 
  14628  9865   204759.2245    48        0.0002   208006.5693  1575389     --- 
  14791  9971   206368.4965    59        0.0002   208006.5693  1610739     --- 
  15021 10090   207902.3748    82        0.0002   208006.5693  1650186     --- 
  15172 10199    infeasible              0.0002   208006.5693  1672546     --- 
  15428 10389        cutoff              0.0002   208006.5693  1699482     --- 
  15766 10599   207298.8409    87        0.0002   208006.5693  1743939     --- 
  16140 10839   207880.8255    59        0.0002   208006.5693  1793076     --- 
  16437 11026    infeasible              0.0002   208006.5693  1835720     --- 
  16707 11170   208006.5693    98        0.0002   208006.5693  1881647     --- 
                                                  Impl Bds: 3                  
Elapsed time = 321.08 sec. (183987.19 ticks, tree = 9.73 MB, solutions = 6)
  16858 11225   206421.9279    42        0.0002   208006.5693  1932856     --- 
  17029 11320   199620.1673    31        0.0002   208006.5693  1968865     --- 
  17236 11425   200996.7626    31        0.0002   208006.5693  1999818     --- 
                                                      Cuts: 8                  
  17532 11593    infeasible              0.0002   208006.5693  2039799     --- 
  17768 11718   201932.1457    61        0.0002   208006.5693  2088828     --- 
  18242 12019   207994.0268    83        0.0002   208006.5693  2132373     --- 
  18623 12271        cutoff              0.0002   208006.5693  2182444     --- 
  19147 12599   206066.4301    64        0.0002   208006.5693  2233375     --- 
  19606 12876   206066.4301    73        0.0002   208006.5693  2281785     --- 
  20081 13182   207121.6121    58        0.0002   208006.5693  2324842     --- 
Elapsed time = 391.33 sec. (222214.52 ticks, tree = 11.39 MB, solutions = 6)
  20514 13475   208006.5693    61        0.0002   208006.5693  2364337     --- 
  20981 13796   207627.9474    56        0.0002   208006.5693  2409713     --- 
  21509 14181   205702.8269    32        0.0002   208006.5693  2458238     --- 
  21992 14540        cutoff              0.0002   208006.5693  2502855     --- 
  22602 14986   208006.5693    67        0.0002   208006.5693  2554460     --- 
  23113 15320    infeasible              0.0002   208006.5693  2601660     --- 
  23678 15747   204605.2559    60        0.0002   208006.5693  2649910     --- 
  24110 16069   152959.1401    42        0.0002   208006.5693  2691236     --- 
  24456 16302    infeasible              0.0002   208006.5693  2721668     --- 
  24748 16525   205770.1039    87        0.0002   208006.5693  2752169     --- 
Elapsed time = 459.05 sec. (260579.21 ticks, tree = 14.71 MB, solutions = 6)
  25203 16904   206257.6272    73        0.0002   208006.5693  2771579     --- 
  25693 17289   205872.3565    77        0.0002   208006.5693  2805158     --- 
  26164 17624    infeasible              0.0002   208006.5693  2848702     --- 
  26645 17970        cutoff              0.0002   208006.5693  2892333     --- 
                                                  Flowcuts: 3                  
  27238 18449   207320.0583    44        0.0002   208006.5693  2932298     --- 
  27739 18841   208006.5693    47        0.0002   208006.5693  2981030     --- 
  28142 19155    infeasible              0.0002   208006.5693  3029956     --- 
  28679 19580   205326.4531    48        0.0002   208006.5693  3081047     --- 
  29230 20035   207025.6908    54        0.0002   208006.5693  3131088     --- 
  29828 20500   207105.7860    38        0.0002   208006.5693  3180349     --- 
Elapsed time = 527.58 sec. (298813.15 ticks, tree = 17.92 MB, solutions = 6)
  30323 20902   206559.1043    28        0.0002   208006.5693  3225611     --- 
  30589 21112   207688.0053    30        0.0002   208006.5693  3257892     --- 
  30891 21337   207303.4546    47        0.0002   208006.5693  3308782     --- 
  31282 21652   207835.7186    32        0.0002   208006.5693  3349881     --- 
  31834 22103   207296.1903    38        0.0002   208006.5693  3395362     --- 
  32358 22521   207632.4223    29        0.0002   208006.5693  3444576     --- 
  32943 22964   206162.5987    38        0.0002   208006.5693  3492909     --- 
  33500 23399    infeasible              0.0002   208006.5693  3548004     --- 
  34003 23788   201782.8145    34        0.0002   208006.5693  3596291     --- 
  34449 24135    infeasible              0.0002   208006.5693  3640895     --- 
Elapsed time = 605.00 sec. (342782.12 ticks, tree = 20.95 MB, solutions = 6)
  34863 24448        cutoff              0.0002   208006.5693  3684414     --- 
  35337 24806   206678.1927    36        0.0002   208006.5693  3726835     --- 
  35816 25142        cutoff              0.0002   208006.5693  3763615     --- 
  36298 25528   201806.5926    22        0.0002   208006.5693  3795755     --- 
  36886 25962   207128.4109    49        0.0002   208006.5693  3840293     --- 
  37506 26464   205366.7568    38        0.0002   208006.5693  3876741     --- 
  37922 26793   206090.5377    45        0.0002   208006.5693  3907006     --- 
  38405 27207   204488.6168    51        0.0002   208006.5693  3941815     --- 
  39061 27734   201617.5238    27        0.0002   208006.5693  3986047     --- 
  39592 28154   204941.3516    36        0.0002   208006.5693  4030672     --- 
Elapsed time = 672.03 sec. (381030.61 ticks, tree = 24.32 MB, solutions = 6)
  40157 28606    infeasible              0.0002   208006.5693  4070421     --- 
  40652 29016   207568.7296    45        0.0002   208006.5693  4111870     --- 
  41076 29327   203040.5301    32        0.0002   208006.5693  4157981     --- 
  41477 29625   203445.8624    35        0.0002   208006.5693  4208485     --- 
  41690 29751    infeasible              0.0002   208006.5693  4262125     --- 
  41803 29801    infeasible              0.0002   208006.5693  4321370     --- 
  41913 29845   207996.3768    23        0.0002   208006.5693  4383527     --- 
  42060 29916        cutoff              0.0002   208006.5693  4435435     --- 
  42306 30087    infeasible              0.0002   208006.5693  4475191     --- 
* 42401     1      integral     0   208006.5693   208006.5693  4505771    0.00%
Found incumbent of value 208006.569315 after 735.76 sec. (417739.16 ticks)

Clique cuts applied:  19
Cover cuts applied:  20
Implied bound cuts applied:  8
Flow cuts applied:  138
Mixed integer rounding cuts applied:  41
Gomory fractional cuts applied:  7

Root node processing (before b&c):
  Real time             =    1.36 sec. (642.34 ticks)
Sequential b&c:
  Real time             =  734.41 sec. (417101.76 ticks)
                          ------------
Total (root+branch&cut) =  735.76 sec. (417744.10 ticks)
MIQP status(101): integer optimal solution
Cplex Time: 735.76sec (det. 417744.11 ticks)
Fixing integer variables, and solving final QP..
Version identifier: 12.10.0.0 | 2019-11-26 | 843d4de2ae
CPXPARAM_Advance                                 2
CPXPARAM_Threads                                 1
CPXPARAM_Parallel                                1
CPXPARAM_MIP_Display                             4
CPXPARAM_Simplex_Limits_Iterations               2000000000
CPXPARAM_MIP_Limits_Nodes                        25000000
CPXPARAM_TimeLimit                               40000
CPXPARAM_Tune_TimeLimit                          8000
CPXPARAM_MIP_Tolerances_AbsMIPGap                0
CPXPARAM_MIP_Tolerances_MIPGap                   0.0050000000000000001
CPXPARAM_WorkDir                                 "C:\Users\a.eicke\Documents\Locational-investment-signals\Three node models\225b\"
Number of nonzeros in lower triangle of Q = 24
Using Approximate Minimum Degree ordering
Total time for automatic ordering = 0.00 sec. (0.00 ticks)
Summary statistics for factor of Q:
  Rows in Factor            = 56
  Integer space required    = 56
  Total non-zeros in factor = 80
  Total FP ops to factor    = 128
Tried aggregator 1 time.
QP Presolve eliminated 1801 rows and 1245 columns.
QP Presolve added 0 rows and 56 columns.
Aggregator did 255 substitutions.
Reduced QP has 339 rows, 330 columns, and 1207 nonzeros.
Reduced QP objective Q matrix has 31 nonzeros.
Presolve time = 0.00 sec. (1.83 ticks)
Parallel mode: none, using 1 thread for barrier

***NOTE: Found 8 dense columns.

Number of nonzeros in lower triangle of A*A' = 623
Using Approximate Minimum Degree ordering
Total time for automatic ordering = 0.00 sec. (0.05 ticks)
Summary statistics for Cholesky factor:
  Rows in Factor            = 347
  Integer space required    = 650
  Total non-zeros in factor = 3486
  Total FP ops to factor    = 42784
 Itn      Primal Obj        Dual Obj  Prim Inf Upper Inf  Dual Inf          
   0  -4.7294557e+07   8.9414316e+08  7.02e+05  3.95e+05  3.32e+05
   1  -3.1936582e+07   7.4825423e+08  6.04e+05  3.32e+05  2.86e+05
   2  -3.8923149e+06   2.2680623e+08  1.75e+05  9.64e+04  1.22e+05
   3  -8.9477886e+05   8.5357506e+07  5.58e+04  3.07e+04  4.38e+04
   4  -7.9324194e+04   1.3243204e+07  3.91e+03  2.15e+03  3.40e+03
   5  -1.0230646e+05   7.3053432e+06  1.06e+03  5.83e+02  9.51e+02
   6   1.4478702e+05   7.6960339e+05  6.24e+01  3.43e+01  5.68e+01
   7   1.8611513e+05   2.9454145e+05  9.04e+00  4.97e+00  1.22e+02
   8   2.0258748e+05   2.2461326e+05  1.05e+00  5.77e-01  2.17e+01
   9   2.0685605e+05   2.1097490e+05  1.56e-01  8.57e-02  3.18e+00
  10   2.0783854e+05   2.0843971e+05  1.98e-02  1.09e-02  3.99e-01
  11   2.0799443e+05   2.0803537e+05  1.23e-03  6.76e-04  2.45e-02
  12   2.0800551e+05   2.0800909e+05  9.89e-05  5.47e-05  2.12e-03
  13   2.0800655e+05   2.0800664e+05  1.02e-05  1.07e-06  4.25e-05
  14   2.0800657e+05   2.0800657e+05  4.60e-05  5.33e-09  2.11e-07
Barrier time = 0.00 sec. (5.72 ticks)

Total time on 1 threads = 0.00 sec. (5.72 ticks)
QP status(1): optimal
Cplex Time: 0.00sec (det. 5.72 ticks)

Proven optimal solution.

MIP Solution:       208006.569315    (4505771 iterations, 42402 nodes)
Final Solve:        208006.569171    (0 iterations)

Best possible:      208006.569315
Absolute gap:            0.000000
Relative gap:            0.000000

--- Restarting execution
--- without_locational_instrument_new_formulation.gms(287) 2 Mb
--- Reading solution for model LOCI
--- Executing after solve: elapsed 0:12:16.027
--- without_locational_instrument_new_formulation.gms(314) 3 Mb
--- GDX File C:\Users\a.eicke\Documents\Locational-investment-signals\Three node models\Output/without_instrument_test.gdx
*** Status: Normal completion
--- Job without_locational_instrument_new_formulation.gms Stop 12/30/21 16:47:06 elapsed 0:12:16.038
